#######################################
### Exact MIP solver for the HHCRSP ###
#######################################
-- Instance file: new-instances/HHCRSP_25_5_44_1.2_C_RC.txt
-- Max threads: 4
-- Time limit: 999999 seconds
-- Use initial solution: No
Trivial flow violations prevented generating 871 variables.
Model exported.
Version identifier: 20.1.0.0 | 2020-11-10 | 9bedb6d68
CPXPARAM_Threads                                 4
CPXPARAM_TimeLimit                               999999
Tried aggregator 1 time.
LP Presolve eliminated 389 rows and 110 columns.
Reduced LP has 1101 rows, 1071 columns, and 7264 nonzeros.
Presolve time = 0.00 sec. (2.63 ticks)

Iteration log . . .
Iteration:     1   Dual objective     =             0.000000
Iteration:   114   Dual objective     =            62.773560

Solution status from MIP model:
-- Processing time: 0.007 sec.
-- Memory used: 14.8379 MB
-- Best bound: inf
-- Obj value: 62.786
-- Gap: inf%
-- Total distance: 188.358
-- Total tardiness: 0
-- Largest tardiness: 0
